
Gurobi 11.0.0 (linux64) logging started Wed Nov 29 17:12:22 2023

Set parameter LogFile to value "wlp01-m-Location-Of-Facilities-GUROBI.txt"
Gurobi Optimizer version 11.0.0 build v11.0.0rc2 (linux64 - "Ubuntu 22.04.2 LTS")

CPU model: 11th Gen Intel(R) Core(TM) i5-1135G7 @ 2.40GHz, instruction set [SSE2|AVX|AVX2|AVX512]
Thread count: 4 physical cores, 8 logical processors, using up to 8 threads

Academic license 2443615 - for non-commercial use only - registered to th___@gmail.com
Optimize a model with 151101 rows, 150500 columns and 601000 nonzeros
Model fingerprint: 0x84f102fc
Coefficient statistics:
  Matrix range     [1e+00, 2e+01]
  Objective range  [1e+00, 1e+03]
  Bounds range     [1e+00, 1e+00]
  RHS range        [1e+00, 1e+02]
Presolve time: 0.49s
Presolved: 151101 rows, 150500 columns, 601000 nonzeros

Concurrent LP optimizer: dual simplex and barrier
Showing barrier log only...

Ordering time: 0.09s

Barrier statistics:
 Dense cols : 250
 AA' NZ     : 6.010e+05
 Factor NZ  : 1.153e+06 (roughly 130 MB of memory)
 Factor Ops : 3.627e+08 (less than 1 second per iteration)
 Threads    : 3

                  Objective                Residual
Iter       Primal          Dual         Primal    Dual     Compl     Time
   0   1.66185964e+06 -1.21061347e+05  8.32e+01 6.69e+01  4.29e+01     1s
   1   2.44161664e+05 -1.83636712e+05  9.67e+00 1.09e+01  7.00e+00     1s
   2   8.26335754e+04 -1.21463121e+05  2.22e-14 2.01e+00  1.18e+00     1s
   3   5.89951912e+04 -7.19612126e+03  5.77e-15 1.60e+00  2.29e-01     1s
   4   5.27501431e+04 -8.66414039e+02  4.88e-15 1.41e-01  1.63e-01     1s
   5   4.34146531e+04  2.42616595e+02  4.22e-15 1.25e-01  1.27e-01     2s
   6   3.92044159e+04  1.38686207e+03  3.55e-15 5.22e-01  1.04e-01     2s
   7   3.10806725e+04  3.21230539e+03  3.33e-15 4.23e-01  7.42e-02     2s
   8   2.59284348e+04  5.73897902e+03  1.13e-14 2.45e-01  5.07e-02     2s
   9   2.24289964e+04  7.03377200e+03  2.51e-14 1.79e-01  3.79e-02     2s
  10   2.02830581e+04  8.23010775e+03  1.78e-14 1.36e-01  2.92e-02     2s
  11   1.85992576e+04  9.14799636e+03  2.09e-14 9.70e-02  2.26e-02     2s
  12   1.74424546e+04  1.00661105e+04  2.24e-14 6.67e-02  1.74e-02     3s
  13   1.60076519e+04  1.06092132e+04  1.44e-14 5.48e-02  1.27e-02     3s
  14   1.54488863e+04  1.11133689e+04  1.42e-14 3.84e-02  1.01e-02     3s
  15   1.49288360e+04  1.15430219e+04  1.62e-14 2.79e-02  7.88e-03     3s
  16   1.45082680e+04  1.18693199e+04  1.93e-14 2.07e-02  6.12e-03     3s
  17   1.42450767e+04  1.20970232e+04  2.11e-14 1.59e-02  4.96e-03     3s
  18   1.39855720e+04  1.22792753e+04  1.38e-14 1.14e-02  3.93e-03     3s
  19   1.39598648e+04  1.23231931e+04  1.40e-14 1.05e-02  3.76e-03     4s
  20   1.36989862e+04  1.24279816e+04  1.38e-14 7.93e-03  2.92e-03     4s
  21   1.35267542e+04  1.25094307e+04  2.07e-14 6.15e-03  2.33e-03     4s
  22   1.33317962e+04  1.25824112e+04  2.36e-14 4.59e-03  1.72e-03     4s
  23   1.32062145e+04  1.26191798e+04  3.49e-14 4.10e-03  1.35e-03     4s
  24   1.31616632e+04  1.26687497e+04  3.13e-14 2.80e-03  1.13e-03     5s
  25   1.31160445e+04  1.26950716e+04  2.84e-14 2.23e-03  9.62e-04     5s
  26   1.30537995e+04  1.27270688e+04  5.55e-14 1.57e-03  7.45e-04     5s
  27   1.29989509e+04  1.27400493e+04  9.19e-14 1.30e-03  5.91e-04     5s
  28   1.29703993e+04  1.27549058e+04  1.39e-13 1.00e-03  4.91e-04     5s
  29   1.29373797e+04  1.27662349e+04  1.32e-13 7.81e-04  3.90e-04     5s
  30   1.29132168e+04  1.27730050e+04  2.03e-13 7.51e-04  3.20e-04     5s
  31   1.28938886e+04  1.27787321e+04  2.89e-13 5.39e-04  2.63e-04     6s
  32   1.28736539e+04  1.27836726e+04  3.12e-13 4.45e-04  2.06e-04     6s
  33   1.28564377e+04  1.27896738e+04  2.09e-13 3.34e-04  1.53e-04     6s
  34   1.28464982e+04  1.27941035e+04  1.67e-13 2.51e-04  1.20e-04     6s
  35   1.28388536e+04  1.27979560e+04  3.42e-13 1.95e-04  9.35e-05     6s
  36   1.28303146e+04  1.28002803e+04  4.44e-13 1.43e-04  6.88e-05     6s
  37   1.28240051e+04  1.28031971e+04  3.43e-13 9.36e-05  4.76e-05     7s
  38   1.28186294e+04  1.28042765e+04  1.63e-12 7.34e-05  3.30e-05     7s
  39   1.28159490e+04  1.28055631e+04  1.01e-12 5.19e-05  2.38e-05     7s
  40   1.28140069e+04  1.28066491e+04  8.35e-13 3.18e-05  1.68e-05     7s
  41   1.28129414e+04  1.28072927e+04  3.22e-12 2.16e-05  1.29e-05     7s
  42   1.28118358e+04  1.28075182e+04  2.30e-12 1.75e-05  9.86e-06     7s
  43   1.28108781e+04  1.28077622e+04  1.56e-12 1.33e-05  7.13e-06     7s
  44   1.28102691e+04  1.28080665e+04  1.13e-12 8.60e-06  5.03e-06     8s
  45   1.28093323e+04  1.28082125e+04  3.39e-12 5.62e-06  2.59e-06     8s
  46   1.28091559e+04  1.28084657e+04  2.79e-12 3.42e-06  1.57e-06     8s
  47   1.28088793e+04  1.28085724e+04  8.36e-12 8.59e-07  6.94e-07     8s
  48   1.28088231e+04  1.28085804e+04  6.26e-12 7.34e-07  5.50e-07     8s
  49   1.28087586e+04  1.28086099e+04  5.00e-12 9.84e-08  3.34e-07     8s
  50   1.28086839e+04  1.28086239e+04  8.14e-12 1.64e-08  1.34e-07     8s
  51   1.28086620e+04  1.28086242e+04  4.15e-11 1.54e-08  8.48e-08     8s
  52   1.28086349e+04  1.28086270e+04  7.79e-10 2.29e-08  1.82e-08     9s
  53   1.28086302e+04  1.28086300e+04  2.22e-08 3.28e-10  5.49e-10     9s
  54   1.28086301e+04  1.28086301e+04  1.89e-09 1.98e-11  2.02e-11     9s

Barrier solved model in 54 iterations and 8.76 seconds (4.14 work units)
Optimal objective 1.28086301e+04

Crossover log...

   89461 variables added to crossover basis                       10s

   60734 DPushes remaining with DInf 0.0000000e+00                11s
       0 DPushes remaining with DInf 0.0000000e+00                15s

       2 PPushes remaining with PInf 0.0000000e+00                15s
       0 PPushes remaining with PInf 0.0000000e+00                15s

  Push phase complete: Pinf 0.0000000e+00, Dinf 6.0164922e-11     15s


Solved with barrier
Iteration    Objective       Primal Inf.    Dual Inf.      Time
    7450    1.2808630e+04   0.000000e+00   0.000000e+00     15s

Solved in 7450 iterations and 14.63 seconds (12.92 work units)
Optimal objective  1.280863010e+04
